(declare-fun v0 () (_ BitVec 3))
(declare-fun v2 () (_ BitVec 16))
(declare-fun v15 () (_ BitVec 4))
(assert
(let (($e1 false    ))
(let (($e11 (_ bv1 2)))
(let (($e14 (_ bv255 8)))
(let (($e17 (_ bv32767 15)))
(let (($e24 (_ bv0 3)))
(let (($e33 (_ bv15 4)))
(let (($e36 (_ bv0 9)))
(let (($e179                                 $e1 ))
(let (($e820                    $e14      ))
(let (($e821 (concat $e820 v0)))
(let (($e822        $e821       ))
(let (($e1188                    $e17      ))
(let (($e1189 (concat $e1188 $e179)))
(let (($e1190      (bvult $e1189 v2)         ))
(let (($e1191             $e1190           ))
(let (($e1573                    $e33      ))
(let (($e1574 (concat $e1573 v15)))
(let (($e1575        $e1574       ))
(let (($e1601 (concat $e36        $e11 )))
(let (($e1602 (bvand $e822 $e1601)))
(let (($e1603 (concat $e24 $e1575)))
(let (($e1604 (bvand $e1603 $e1602)))
(let (($e5313                  $e1191 ))
(let (($e5314              $e5313          ))
(let (($e5315             $e5314 ))
              (ite        $e5315  $e1602 $e1604)
                                                                                                                                                                                                                                                                                                                                                                                                                                                                                                                                                                                                                                                                                                                                                                                                                                                                                                                                                                                                                                                                                                                                                                                                                                                                                                                                                                                                                                                                                                                                                                                                                                                                                                                                                                                                                                                                                                                                                                                                                                                                                                                                                                                                                                                                                                                                                                                                                                                                                                                                                                                                                            )))                                                                                                                                                                                                                                                                                                                                                                                                                                                                                                                                                                                                                                                                                                                                                                                                                                                                                                                                                                                                                                                                                                                                                                                                                                                                                                                                                                                                                                                                                                                                                                                                                                                                                                                                                                                                                                                                                                                                                                                                                                                                                                                                                                                                                                                                                                                                                                                                                                                                                                                                                                                                                                                                                                                                                                                                                                                                                                                                                                                                                                                                                                                                                                                                                                                                                                                                                                                                                                                                                                                                                                                                                                                                                                                                                                                                                                                            ))))                         )))                                                                                                                                                                                                                                                                                                                                                                                             ))))                                                                                                                                                                                                                                                                                                                                                                             )))                                                                                                                                                                                                                                                                                                                                                                                                                                                                                                                                                                                                                                                                )                                                                                                                  )  )        )      )  )  )         ))
